benchmarks_CP/INST_49x49/50/inst49x49_50_63.dzn
S=7;
start=[|
-1,	19,	-1,	-1,	-1,	8,	40,	-1,	14,	-1,	39,	48,	-1,	-1,	-1,	-1,	41,	-1,	1,	15,	-1,	9,	-1,	-1,	10,	23,	35,	24,	46,	43,	-1,	-1,	-1,	-1,	21,	-1,	30,	4,	-1,	26,	-1,	29,	20,	13,	42,	-1,	-1,	-1,	3|
26,	31,	-1,	-1,	-1,	14,	-1,	-1,	30,	-1,	37,	41,	-1,	-1,	48,	9,	42,	35,	28,	-1,	-1,	-1,	-1,	-1,	-1,	-1,	-1,	-1,	8,	-1,	-1,	13,	44,	-1,	6,	-1,	46,	12,	-1,	19,	5,	-1,	49,	21,	-1,	-1,	-1,	36,	-1|
16,	-1,	-1,	29,	-1,	32,	-1,	24,	-1,	10,	-1,	-1,	-1,	-1,	3,	44,	-1,	-1,	-1,	7,	-1,	14,	8,	-1,	31,	34,	43,	-1,	40,	39,	11,	48,	-1,	47,	19,	-1,	28,	1,	27,	36,	-1,	-1,	-1,	12,	2,	4,	-1,	23,	-1|
-1,	44,	-1,	18,	-1,	-1,	22,	-1,	-1,	1,	-1,	-1,	-1,	-1,	-1,	-1,	23,	32,	-1,	-1,	-1,	3,	49,	-1,	36,	11,	25,	19,	-1,	34,	35,	-1,	37,	-1,	-1,	39,	-1,	40,	-1,	-1,	-1,	24,	-1,	-1,	7,	45,	10,	31,	48|
-1,	-1,	-1,	1,	42,	-1,	23,	32,	-1,	8,	-1,	-1,	20,	-1,	31,	37,	47,	39,	6,	29,	-1,	5,	-1,	-1,	46,	-1,	7,	-1,	-1,	-1,	-1,	-1,	3,	25,	-1,	45,	34,	-1,	-1,	15,	-1,	41,	-1,	-1,	43,	33,	19,	-1,	-1|
34,	-1,	-1,	-1,	-1,	4,	28,	43,	-1,	23,	-1,	3,	-1,	49,	20,	-1,	11,	-1,	-1,	-1,	-1,	-1,	-1,	-1,	32,	-1,	48,	-1,	-1,	41,	-1,	24,	-1,	33,	29,	-1,	-1,	44,	-1,	9,	-1,	-1,	-1,	25,	-1,	26,	1,	-1,	-1|
-1,	-1,	27,	43,	-1,	24,	25,	-1,	42,	13,	28,	-1,	4,	19,	10,	26,	40,	14,	-1,	-1,	21,	41,	-1,	-1,	12,	44,	45,	6,	-1,	-1,	31,	-1,	1,	-1,	-1,	16,	23,	32,	-1,	48,	-1,	-1,	35,	-1,	-1,	11,	47,	38,	-1|
-1,	13,	-1,	36,	-1,	10,	7,	31,	43,	11,	-1,	24,	-1,	-1,	35,	30,	-1,	-1,	-1,	-1,	16,	38,	6,	-1,	19,	-1,	-1,	-1,	-1,	-1,	-1,	23,	33,	39,	-1,	-1,	37,	-1,	-1,	46,	-1,	-1,	-1,	-1,	41,	-1,	20,	45,	21|
-1,	-1,	-1,	-1,	12,	21,	-1,	17,	-1,	47,	16,	-1,	-1,	46,	-1,	43,	5,	-1,	32,	-1,	-1,	8,	44,	-1,	18,	2,	-1,	30,	27,	13,	42,	-1,	-1,	-1,	48,	35,	36,	31,	-1,	20,	-1,	14,	19,	-1,	37,	-1,	-1,	26,	-1|
25,	-1,	30,	-1,	47,	-1,	20,	-1,	13,	26,	44,	-1,	-1,	32,	18,	-1,	4,	17,	48,	-1,	42,	33,	-1,	-1,	23,	35,	-1,	-1,	15,	-1,	-1,	-1,	40,	-1,	-1,	-1,	-1,	3,	-1,	16,	28,	45,	-1,	-1,	14,	-1,	29,	-1,	10|
-1,	6,	1,	49,	-1,	-1,	35,	-1,	38,	-1,	-1,	-1,	5,	-1,	-1,	-1,	3,	-1,	2,	-1,	37,	-1,	21,	-1,	-1,	32,	-1,	36,	-1,	-1,	10,	-1,	20,	-1,	8,	23,	-1,	13,	-1,	30,	-1,	18,	-1,	42,	9,	31,	12,	-1,	40|
8,	-1,	-1,	-1,	40,	44,	-1,	-1,	19,	4,	14,	39,	41,	42,	-1,	21,	-1,	29,	-1,	-1,	34,	47,	46,	-1,	22,	27,	-1,	-1,	25,	-1,	-1,	26,	30,	-1,	17,	-1,	-1,	10,	-1,	-1,	-1,	-1,	7,	-1,	-1,	-1,	-1,	35,	28|
-1,	-1,	31,	26,	45,	-1,	-1,	-1,	2,	-1,	34,	29,	21,	-1,	-1,	14,	20,	8,	-1,	49,	-1,	11,	1,	-1,	7,	-1,	28,	16,	-1,	-1,	-1,	-1,	38,	-1,	-1,	-1,	-1,	-1,	39,	-1,	-1,	17,	47,	4,	24,	-1,	36,	33,	13|
33,	-1,	-1,	-1,	14,	5,	29,	-1,	12,	-1,	-1,	-1,	10,	23,	-1,	40,	-1,	-1,	11,	24,	-1,	-1,	3,	-1,	-1,	42,	-1,	17,	7,	45,	1,	-1,	-1,	-1,	37,	43,	6,	-1,	-1,	47,	19,	-1,	39,	32,	-1,	-1,	-1,	-1,	-1|
-1,	-1,	34,	-1,	8,	-1,	-1,	18,	-1,	14,	-1,	-1,	-1,	-1,	16,	28,	39,	-1,	-1,	-1,	-1,	44,	-1,	4,	-1,	-1,	15,	-1,	-1,	11,	-1,	37,	43,	30,	24,	-1,	-1,	-1,	-1,	1,	-1,	-1,	42,	-1,	25,	-1,	2,	-1,	36|
14,	16,	39,	33,	-1,	-1,	13,	37,	-1,	-1,	-1,	-1,	29,	-1,	-1,	-1,	-1,	2,	-1,	17,	-1,	31,	11,	19,	-1,	43,	-1,	49,	4,	23,	40,	25,	5,	-1,	-1,	-1,	20,	-1,	-1,	21,	7,	-1,	24,	-1,	32,	12,	-1,	-1,	-1|
30,	36,	45,	-1,	-1,	-1,	-1,	19,	-1,	43,	3,	4,	-1,	-1,	-1,	-1,	-1,	-1,	-1,	35,	14,	7,	10,	-1,	48,	12,	26,	46,	39,	18,	8,	-1,	6,	1,	15,	-1,	42,	49,	13,	24,	-1,	16,	9,	11,	-1,	-1,	31,	37,	-1|
-1,	47,	-1,	5,	23,	-1,	32,	-1,	11,	-1,	20,	-1,	-1,	1,	49,	48,	15,	12,	-1,	4,	-1,	-1,	-1,	36,	6,	8,	-1,	-1,	-1,	22,	34,	-1,	-1,	38,	42,	-1,	26,	-1,	31,	14,	25,	-1,	17,	10,	35,	16,	18,	30,	45|
-1,	-1,	-1,	38,	1,	43,	49,	-1,	33,	21,	36,	12,	34,	13,	-1,	45,	7,	3,	-1,	9,	11,	-1,	-1,	5,	28,	30,	22,	25,	-1,	-1,	46,	47,	17,	-1,	2,	-1,	19,	-1,	-1,	-1,	-1,	32,	14,	6,	-1,	8,	-1,	27,	-1|
12,	15,	18,	-1,	-1,	-1,	6,	48,	46,	7,	25,	-1,	30,	-1,	-1,	38,	32,	31,	-1,	5,	44,	-1,	-1,	-1,	24,	-1,	-1,	27,	-1,	-1,	45,	-1,	-1,	20,	49,	47,	-1,	-1,	-1,	-1,	-1,	11,	23,	26,	19,	39,	-1,	1,	-1|
20,	-1,	-1,	40,	46,	25,	11,	-1,	26,	-1,	-1,	-1,	-1,	-1,	-1,	-1,	-1,	41,	-1,	-1,	-1,	-1,	-1,	1,	-1,	-1,	-1,	39,	-1,	7,	14,	-1,	9,	-1,	-1,	-1,	-1,	30,	-1,	-1,	4,	-1,	-1,	-1,	34,	43,	-1,	3,	44|
4,	-1,	22,	-1,	-1,	-1,	47,	49,	37,	-1,	-1,	-1,	46,	43,	-1,	12,	-1,	15,	36,	2,	-1,	-1,	-1,	-1,	9,	-1,	-1,	-1,	-1,	-1,	27,	17,	-1,	-1,	-1,	-1,	21,	-1,	7,	41,	40,	-1,	34,	-1,	44,	-1,	-1,	-1,	42|
43,	23,	-1,	27,	-1,	35,	21,	-1,	1,	-1,	-1,	20,	-1,	34,	38,	39,	48,	44,	-1,	3,	-1,	-1,	32,	-1,	49,	5,	30,	-1,	-1,	-1,	-1,	-1,	-1,	46,	-1,	-1,	-1,	-1,	9,	-1,	16,	13,	45,	37,	28,	29,	-1,	10,	19|
5,	-1,	20,	-1,	-1,	45,	12,	-1,	23,	-1,	2,	-1,	-1,	22,	30,	-1,	29,	-1,	-1,	-1,	47,	39,	26,	44,	3,	-1,	6,	18,	-1,	28,	36,	42,	-1,	-1,	11,	37,	-1,	-1,	-1,	27,	-1,	-1,	4,	7,	33,	-1,	-1,	-1,	-1|
3,	49,	33,	-1,	29,	46,	-1,	9,	44,	-1,	-1,	8,	26,	17,	42,	-1,	27,	-1,	18,	41,	28,	20,	-1,	-1,	14,	-1,	-1,	-1,	2,	6,	-1,	12,	32,	22,	-1,	-1,	-1,	-1,	1,	25,	-1,	31,	21,	-1,	-1,	47,	40,	15,	39|
13,	-1,	44,	-1,	-1,	-1,	-1,	14,	7,	39,	6,	18,	-1,	30,	-1,	5,	-1,	4,	25,	-1,	26,	12,	40,	11,	-1,	24,	17,	47,	1,	33,	-1,	8,	-1,	-1,	45,	-1,	43,	-1,	-1,	-1,	20,	-1,	-1,	35,	22,	3,	46,	-1,	-1|
18,	32,	-1,	34,	25,	41,	-1,	12,	-1,	38,	15,	-1,	48,	-1,	7,	-1,	8,	-1,	-1,	-1,	-1,	27,	-1,	23,	-1,	-1,	-1,	-1,	-1,	-1,	-1,	10,	-1,	9,	39,	-1,	4,	46,	-1,	-1,	-1,	-1,	-1,	16,	-1,	13,	6,	-1,	-1|
17,	40,	-1,	-1,	-1,	16,	36,	4,	-1,	-1,	35,	-1,	-1,	5,	45,	11,	-1,	10,	-1,	-1,	-1,	1,	-1,	-1,	34,	46,	-1,	37,	18,	49,	44,	-1,	-1,	15,	3,	-1,	32,	-1,	-1,	6,	39,	-1,	12,	-1,	-1,	-1,	-1,	24,	2|
27,	-1,	-1,	4,	-1,	11,	-1,	34,	-1,	-1,	21,	-1,	6,	-1,	-1,	-1,	-1,	18,	-1,	-1,	15,	35,	-1,	-1,	29,	22,	37,	9,	-1,	25,	-1,	-1,	28,	-1,	31,	-1,	-1,	-1,	46,	42,	30,	-1,	-1,	-1,	45,	-1,	-1,	-1,	47|
-1,	-1,	-1,	25,	28,	-1,	-1,	-1,	-1,	27,	18,	-1,	19,	-1,	37,	23,	-1,	9,	47,	-1,	-1,	-1,	-1,	24,	-1,	-1,	34,	1,	20,	-1,	-1,	11,	-1,	36,	-1,	-1,	22,	16,	12,	-1,	-1,	5,	13,	-1,	-1,	-1,	-1,	-1,	-1|
-1,	-1,	-1,	-1,	-1,	31,	-1,	-1,	22,	3,	38,	-1,	-1,	-1,	-1,	-1,	35,	-1,	26,	42,	25,	32,	-1,	-1,	-1,	18,	-1,	14,	-1,	29,	17,	-1,	49,	-1,	27,	-1,	-1,	15,	44,	-1,	33,	36,	11,	19,	-1,	-1,	9,	-1,	23|
-1,	38,	47,	21,	-1,	29,	-1,	-1,	-1,	-1,	-1,	35,	36,	24,	-1,	1,	-1,	-1,	13,	-1,	31,	26,	-1,	-1,	39,	-1,	16,	43,	12,	42,	33,	-1,	8,	-1,	22,	27,	40,	37,	-1,	23,	-1,	20,	5,	-1,	3,	-1,	49,	41,	-1|
40,	-1,	12,	23,	-1,	6,	-1,	-1,	-1,	-1,	13,	46,	-1,	-1,	-1,	-1,	-1,	43,	-1,	-1,	-1,	-1,	-1,	3,	4,	-1,	-1,	44,	16,	-1,	21,	39,	-1,	-1,	1,	11,	-1,	-1,	49,	17,	47,	-1,	-1,	-1,	-1,	-1,	24,	-1,	25|
36,	42,	43,	-1,	13,	-1,	-1,	45,	20,	41,	11,	-1,	33,	-1,	5,	-1,	-1,	-1,	-1,	-1,	-1,	-1,	17,	-1,	-1,	-1,	47,	-1,	-1,	40,	15,	-1,	23,	37,	4,	25,	3,	-1,	-1,	28,	-1,	35,	-1,	-1,	-1,	10,	16,	29,	-1|
35,	-1,	8,	-1,	-1,	33,	-1,	-1,	-1,	-1,	42,	32,	-1,	-1,	-1,	-1,	-1,	16,	3,	27,	20,	-1,	45,	49,	-1,	-1,	-1,	-1,	-1,	-1,	6,	-1,	-1,	-1,	-1,	-1,	-1,	7,	-1,	43,	-1,	-1,	37,	-1,	36,	-1,	4,	-1,	17|
-1,	-1,	-1,	8,	-1,	23,	17,	-1,	-1,	40,	-1,	-1,	14,	6,	-1,	-1,	49,	-1,	43,	36,	-1,	-1,	-1,	-1,	25,	15,	-1,	-1,	22,	5,	12,	-1,	-1,	-1,	9,	-1,	48,	45,	19,	-1,	-1,	4,	-1,	30,	47,	42,	35,	-1,	-1|
-1,	-1,	10,	-1,	19,	-1,	-1,	1,	-1,	-1,	12,	-1,	49,	20,	-1,	-1,	18,	-1,	-1,	26,	-1,	28,	37,	45,	-1,	29,	3,	35,	11,	-1,	-1,	31,	-1,	27,	-1,	-1,	-1,	6,	22,	-1,	-1,	-1,	40,	36,	-1,	41,	34,	39,	33|
-1,	7,	-1,	42,	-1,	34,	5,	-1,	-1,	-1,	32,	31,	-1,	25,	-1,	-1,	28,	11,	-1,	6,	-1,	36,	-1,	40,	-1,	4,	38,	22,	21,	1,	29,	20,	18,	-1,	43,	-1,	15,	35,	-1,	-1,	24,	-1,	-1,	48,	-1,	-1,	37,	19,	-1|
29,	1,	-1,	-1,	21,	-1,	-1,	-1,	5,	46,	4,	-1,	-1,	8,	-1,	-1,	-1,	-1,	-1,	-1,	-1,	19,	39,	26,	2,	14,	-1,	23,	44,	-1,	-1,	3,	42,	34,	47,	-1,	31,	-1,	-1,	37,	-1,	-1,	-1,	-1,	-1,	-1,	7,	20,	11|
-1,	-1,	40,	-1,	3,	39,	2,	11,	-1,	37,	-1,	-1,	28,	-1,	-1,	-1,	30,	42,	34,	-1,	-1,	-1,	-1,	-1,	-1,	31,	18,	-1,	36,	-1,	49,	-1,	-1,	-1,	-1,	10,	33,	20,	-1,	-1,	1,	8,	-1,	46,	-1,	27,	21,	-1,	-1|
31,	24,	32,	-1,	22,	-1,	-1,	21,	-1,	18,	43,	13,	-1,	-1,	25,	20,	37,	-1,	-1,	48,	3,	-1,	-1,	-1,	-1,	-1,	-1,	41,	-1,	-1,	-1,	-1,	39,	7,	40,	5,	38,	42,	16,	2,	11,	30,	29,	28,	15,	-1,	-1,	17,	-1|
15,	-1,	28,	-1,	35,	27,	-1,	-1,	-1,	-1,	-1,	-1,	44,	-1,	24,	4,	-1,	19,	40,	23,	13,	6,	42,	32,	20,	-1,	-1,	12,	37,	10,	48,	-1,	2,	45,	-1,	-1,	25,	-1,	26,	-1,	43,	39,	-1,	-1,	-1,	49,	8,	-1,	31|
-1,	-1,	5,	45,	-1,	19,	-1,	-1,	-1,	-1,	-1,	49,	3,	10,	-1,	-1,	-1,	20,	7,	11,	35,	17,	24,	38,	-1,	-1,	14,	-1,	32,	-1,	-1,	22,	25,	12,	34,	-1,	-1,	47,	2,	-1,	44,	-1,	-1,	18,	30,	23,	27,	4,	15|
24,	-1,	23,	13,	-1,	37,	-1,	41,	-1,	-1,	48,	34,	-1,	12,	-1,	42,	6,	25,	-1,	47,	2,	-1,	-1,	16,	30,	3,	8,	-1,	-1,	27,	39,	-1,	-1,	40,	-1,	-1,	18,	-1,	38,	22,	17,	28,	-1,	9,	49,	-1,	11,	-1,	5|
-1,	46,	49,	-1,	44,	20,	3,	33,	-1,	-1,	1,	23,	42,	47,	14,	-1,	43,	-1,	-1,	19,	-1,	34,	12,	-1,	45,	-1,	32,	26,	17,	-1,	13,	15,	-1,	-1,	35,	-1,	16,	-1,	30,	11,	37,	-1,	28,	40,	6,	-1,	-1,	-1,	-1|
21,	12,	4,	-1,	-1,	-1,	-1,	5,	-1,	-1,	-1,	-1,	-1,	-1,	41,	-1,	-1,	-1,	-1,	-1,	-1,	22,	25,	-1,	13,	28,	23,	15,	-1,	9,	3,	-1,	11,	-1,	20,	-1,	27,	36,	-1,	-1,	-1,	-1,	-1,	-1,	-1,	7,	-1,	-1,	1|
-1,	-1,	25,	-1,	36,	-1,	-1,	-1,	-1,	-1,	19,	38,	-1,	28,	-1,	-1,	-1,	45,	31,	-1,	-1,	43,	-1,	-1,	11,	-1,	27,	10,	-1,	44,	-1,	1,	16,	-1,	-1,	20,	49,	34,	-1,	-1,	46,	-1,	41,	29,	-1,	-1,	3,	-1,	-1|
-1,	-1,	6,	35,	-1,	-1,	-1,	-1,	21,	-1,	-1,	-1,	-1,	-1,	34,	-1,	13,	30,	38,	44,	-1,	29,	-1,	-1,	-1,	9,	36,	5,	-1,	-1,	-1,	46,	41,	42,	10,	-1,	14,	-1,	24,	-1,	-1,	23,	43,	31,	-1,	48,	-1,	16,	-1|
39,	18,	29,	7,	-1,	1,	38,	-1,	25,	-1,	46,	-1,	16,	37,	-1,	3,	-1,	-1,	23,	28,	-1,	-1,	4,	6,	33,	49,	-1,	-1,	-1,	-1,	-1,	-1,	-1,	-1,	-1,	-1,	-1,	-1,	42,	12,	13,	10,	2,	-1,	20,	-1,	14,	-1,	34|];
