sudoku-ls/benchmarks_LEQ/INST_49x49/50/inst49x49_50_63.txt
7
1
7	19	-1	-1	-1	-1	40	-1	-1	-1	39	-1	25	-1	-1	2	41	38	1	-1	-1	-1	-1	-1	10	23	35	24	-1	43	32	49	45	5	21	33	-1	-1	-1	-1	31	-1	-1	-1	-1	34	-1	-1	3
-1	31	-1	-1	-1	-1	-1	47	-1	-1	-1	-1	-1	11	48	-1	42	35	28	45	-1	-1	18	27	-1	1	39	2	-1	-1	-1	-1	-1	-1	6	-1	46	-1	43	-1	-1	-1	-1	-1	-1	-1	32	36	-1
-1	-1	38	29	20	32	41	24	-1	10	-1	9	45	26	-1	44	25	13	46	-1	49	14	-1	-1	31	-1	43	-1	40	39	11	48	-1	-1	19	21	28	-1	-1	36	35	37	18	12	2	4	-1	-1	-1
6	44	21	-1	-1	47	-1	-1	27	-1	29	-1	12	33	8	-1	23	32	16	-1	-1	-1	49	30	-1	11	25	19	-1	34	-1	28	37	26	14	-1	13	-1	-1	-1	-1	-1	-1	-1	7	-1	10	-1	48
-1	-1	13	1	42	12	-1	32	-1	-1	-1	-1	-1	21	-1	37	-1	39	6	-1	22	-1	-1	-1	-1	26	-1	-1	-1	36	-1	-1	-1	25	-1	-1	-1	-1	-1	15	49	41	-1	24	-1	-1	19	-1	9
-1	45	-1	37	-1	-1	28	-1	-1	-1	-1	-1	31	49	20	-1	11	36	-1	18	30	21	-1	15	-1	-1	-1	-1	42	-1	16	-1	-1	-1	-1	-1	-1	44	-1	-1	-1	47	8	-1	40	-1	-1	46	27
46	9	-1	43	-1	24	-1	15	42	-1	-1	36	-1	19	10	26	-1	-1	33	34	21	-1	20	29	12	44	-1	6	-1	2	31	-1	-1	17	18	16	23	-1	-1	-1	8	-1	-1	-1	-1	11	47	-1	37
42	-1	-1	36	32	-1	-1	31	43	11	-1	-1	18	-1	-1	-1	22	-1	-1	-1	16	38	6	-1	19	-1	-1	-1	29	14	47	23	-1	-1	28	2	37	-1	8	46	-1	34	-1	-1	-1	-1	20	-1	-1
-1	-1	-1	-1	-1	-1	9	17	-1	-1	16	7	-1	46	-1	43	-1	-1	-1	-1	-1	8	-1	-1	18	-1	-1	30	27	13	-1	4	22	-1	-1	-1	36	-1	29	20	-1	14	19	-1	-1	-1	25	26	-1
25	22	30	-1	47	38	-1	6	13	26	-1	37	8	-1	-1	-1	-1	-1	48	1	42	-1	31	-1	-1	-1	12	-1	15	-1	-1	-1	40	49	-1	-1	-1	-1	21	-1	-1	45	-1	-1	14	-1	29	11	-1
-1	-1	-1	49	41	-1	-1	-1	-1	48	33	-1	-1	-1	-1	7	3	-1	2	39	-1	25	21	-1	-1	32	29	-1	-1	-1	10	44	-1	-1	8	-1	11	13	4	-1	27	-1	-1	-1	-1	-1	-1	-1	-1
8	37	-1	24	40	-1	-1	-1	19	-1	-1	-1	41	42	13	-1	36	29	15	31	34	-1	-1	20	-1	27	5	-1	25	12	18	26	-1	-1	-1	-1	1	-1	33	32	9	49	-1	-1	48	6	-1	35	28
-1	27	-1	26	45	-1	-1	35	2	25	34	29	-1	9	-1	-1	20	-1	-1	49	12	11	1	-1	7	-1	-1	-1	41	3	5	32	38	-1	46	-1	44	22	39	40	-1	17	-1	4	24	30	-1	-1	-1
33	-1	2	46	-1	-1	-1	20	-1	-1	22	30	10	-1	27	-1	9	28	-1	24	38	-1	3	13	-1	42	-1	17	-1	-1	-1	-1	-1	21	-1	43	-1	-1	25	-1	-1	26	-1	32	16	18	44	-1	-1
-1	-1	-1	41	8	-1	-1	18	-1	14	-1	5	-1	-1	-1	-1	39	6	-1	13	-1	-1	-1	4	35	20	15	-1	-1	11	-1	37	43	-1	24	17	-1	33	-1	-1	48	-1	42	-1	-1	-1	-1	7	-1
-1	16	-1	33	48	26	-1	37	45	35	41	-1	29	-1	1	8	34	2	30	17	18	-1	11	19	-1	-1	42	49	4	-1	40	-1	-1	-1	44	6	20	-1	-1	21	7	-1	-1	22	-1	-1	-1	28	46
30	-1	45	-1	2	-1	27	19	32	43	3	-1	23	44	47	-1	-1	-1	-1	35	14	-1	10	34	-1	12	-1	-1	39	18	8	41	6	-1	-1	-1	42	49	-1	-1	38	-1	-1	11	-1	-1	-1	-1	29
37	-1	-1	-1	23	-1	32	-1	11	-1	20	-1	2	-1	49	-1	-1	12	-1	-1	-1	40	29	-1	6	8	-1	-1	13	-1	34	-1	-1	38	-1	-1	-1	-1	31	-1	-1	44	17	10	35	-1	-1	30	-1
-1	-1	-1	38	1	43	49	-1	33	21	-1	-1	-1	-1	-1	45	-1	-1	10	9	11	-1	41	5	-1	30	-1	25	-1	-1	-1	47	17	31	2	40	-1	-1	37	-1	-1	32	-1	-1	4	8	-1	-1	-1
-1	-1	18	-1	-1	9	-1	48	46	7	25	-1	30	-1	-1	38	-1	31	-1	5	44	37	14	2	24	-1	-1	-1	-1	21	45	-1	10	20	-1	47	-1	8	28	3	-1	-1	-1	26	-1	39	13	-1	-1
20	35	42	-1	-1	25	11	8	26	17	-1	6	24	-1	-1	-1	-1	41	-1	-1	36	23	38	-1	16	45	-1	39	-1	-1	-1	29	-1	-1	12	-1	-1	-1	-1	5	-1	-1	33	49	34	43	-1	3	44
-1	-1	-1	-1	11	48	-1	49	-1	19	24	-1	-1	-1	-1	-1	1	-1	-1	2	-1	-1	28	-1	9	-1	10	-1	-1	-1	-1	17	-1	35	-1	-1	-1	-1	-1	-1	-1	-1	34	20	-1	14	5	-1	-1
-1	23	-1	27	6	-1	21	-1	1	-1	-1	-1	-1	34	38	39	-1	44	-1	3	33	-1	-1	41	49	5	30	-1	-1	4	7	-1	-1	46	25	12	-1	2	-1	-1	16	13	45	37	-1	29	17	10	19
-1	8	-1	-1	-1	-1	12	40	23	16	-1	25	-1	22	30	35	29	-1	-1	-1	47	-1	26	44	-1	-1	6	18	-1	28	36	42	34	19	11	-1	-1	14	15	27	10	38	-1	-1	-1	1	-1	-1	-1
-1	-1	33	19	-1	46	24	9	44	45	10	8	-1	-1	42	-1	-1	-1	-1	-1	28	20	43	35	-1	48	4	-1	2	-1	-1	-1	32	22	-1	-1	5	-1	-1	25	-1	-1	-1	23	38	-1	-1	15	39
13	-1	44	2	-1	42	15	14	-1	-1	-1	18	-1	30	-1	-1	-1	-1	-1	16	-1	-1	-1	-1	-1	-1	-1	-1	-1	33	-1	8	-1	-1	45	28	43	19	34	49	20	-1	36	-1	22	-1	46	9	32
18	32	-1	34	-1	-1	-1	12	-1	-1	15	47	-1	-1	-1	24	8	-1	-1	-1	-1	-1	-1	-1	42	-1	-1	29	5	30	20	-1	-1	9	39	-1	-1	46	35	45	-1	-1	-1	-1	11	13	-1	-1	26
-1	40	-1	28	-1	16	-1	4	-1	-1	35	-1	-1	5	45	11	14	10	9	-1	19	-1	33	22	34	-1	31	-1	-1	49	-1	-1	-1	15	-1	26	-1	23	-1	6	39	42	-1	8	-1	-1	30	24	2
27	-1	-1	4	7	11	-1	34	10	49	21	16	6	-1	-1	36	17	-1	12	-1	-1	-1	23	-1	-1	-1	37	-1	-1	-1	-1	-1	28	14	-1	13	-1	38	46	42	30	2	-1	1	-1	-1	-1	32	-1
-1	-1	-1	-1	28	-1	45	44	-1	-1	-1	-1	19	39	-1	-1	10	-1	47	-1	40	2	-1	-1	-1	21	-1	1	-1	32	-1	11	-1	-1	-1	-1	22	-1	12	31	29	5	-1	-1	46	35	42	6	-1
-1	5	46	20	-1	31	37	-1	22	-1	-1	43	-1	2	4	6	-1	24	-1	42	-1	-1	-1	-1	-1	-1	40	14	-1	29	-1	34	-1	13	-1	48	8	15	44	-1	-1	36	-1	19	-1	-1	9	-1	-1
-1	-1	47	-1	-1	29	-1	25	-1	28	-1	35	36	-1	11	1	-1	48	-1	14	-1	26	-1	-1	-1	10	-1	-1	12	42	33	-1	8	44	22	-1	-1	37	-1	-1	-1	20	5	34	-1	-1	-1	41	-1
40	-1	12	23	18	6	10	29	15	5	13	46	37	7	28	34	38	-1	-1	30	-1	-1	-1	-1	4	36	20	-1	-1	48	-1	39	35	2	1	-1	-1	-1	49	-1	-1	-1	26	33	-1	22	24	-1	25
36	42	43	32	13	-1	34	45	-1	-1	11	1	33	-1	5	-1	2	-1	39	-1	7	-1	17	12	-1	6	-1	-1	-1	-1	-1	-1	23	37	4	25	-1	-1	-1	28	26	35	44	-1	18	10	16	29	-1
35	-1	-1	-1	24	33	-1	-1	31	12	42	-1	9	14	-1	-1	44	-1	3	-1	20	-1	45	49	-1	25	19	-1	38	46	6	-1	-1	-1	-1	-1	41	-1	18	43	-1	1	-1	15	-1	28	4	-1	-1
41	20	37	-1	33	-1	-1	10	39	40	-1	-1	14	-1	44	-1	49	-1	-1	36	29	16	-1	-1	-1	15	11	21	22	5	12	38	24	28	-1	-1	48	45	19	34	3	-1	32	-1	47	42	35	-1	18
-1	43	-1	-1	-1	-1	-1	1	48	-1	-1	-1	49	20	-1	32	-1	7	8	-1	5	28	37	-1	17	-1	3	-1	-1	-1	25	31	46	-1	30	-1	-1	6	22	-1	14	-1	-1	36	-1	41	34	-1	-1
-1	-1	9	42	26	34	5	2	-1	-1	32	31	-1	-1	39	-1	28	11	-1	6	-1	36	-1	40	-1	-1	38	-1	-1	-1	29	-1	-1	-1	-1	49	15	-1	-1	13	-1	-1	16	48	-1	44	-1	-1	14
29	-1	48	6	21	-1	-1	38	-1	-1	-1	-1	15	8	-1	16	-1	33	-1	22	-1	-1	-1	26	2	-1	49	-1	-1	-1	-1	3	42	-1	-1	32	-1	-1	40	37	18	27	-1	43	-1	24	7	-1	11
-1	25	-1	-1	-1	-1	2	11	-1	-1	23	19	-1	-1	15	-1	-1	42	-1	-1	17	24	5	9	43	31	18	48	36	-1	49	14	-1	4	32	10	33	-1	41	7	-1	8	6	-1	26	-1	-1	-1	-1
-1	-1	-1	-1	-1	49	-1	21	-1	18	-1	-1	-1	36	-1	-1	-1	27	-1	-1	3	10	34	-1	44	33	1	41	-1	26	-1	-1	-1	7	40	5	-1	-1	-1	2	11	-1	29	28	-1	-1	-1	-1	-1
-1	11	28	-1	35	27	-1	7	-1	-1	-1	-1	44	-1	-1	-1	-1	19	-1	-1	-1	-1	42	32	20	47	46	12	-1	10	-1	16	2	-1	33	36	-1	-1	26	29	43	-1	3	-1	1	-1	8	-1	-1
-1	41	-1	45	43	-1	-1	13	-1	-1	8	49	-1	10	21	29	-1	20	-1	11	-1	-1	24	-1	-1	39	-1	-1	-1	-1	-1	-1	25	-1	-1	-1	-1	47	-1	33	-1	40	46	18	-1	23	27	4	15
-1	-1	23	-1	15	37	-1	41	29	-1	-1	-1	43	12	36	-1	6	25	-1	47	-1	-1	35	-1	-1	3	8	-1	31	-1	-1	45	-1	40	7	-1	-1	26	38	22	17	-1	10	9	49	32	-1	-1	5
-1	-1	-1	9	-1	20	-1	-1	-1	-1	1	-1	-1	-1	14	-1	43	5	-1	19	8	34	12	31	-1	-1	-1	-1	-1	-1	13	15	-1	-1	-1	29	16	-1	-1	11	37	7	-1	-1	6	36	-1	-1	24
-1	12	4	-1	-1	2	-1	-1	-1	-1	30	-1	-1	35	41	-1	-1	49	-1	32	39	22	-1	-1	13	28	-1	15	-1	-1	3	6	11	-1	-1	-1	27	36	-1	8	45	-1	-1	44	17	7	26	42	1
32	17	25	-1	36	30	-1	-1	9	15	-1	-1	-1	28	40	-1	24	-1	31	-1	-1	43	-1	-1	-1	7	-1	10	14	44	-1	-1	16	18	-1	20	49	34	-1	4	-1	-1	-1	-1	8	37	-1	-1	35
11	28	6	35	27	40	8	26	-1	-1	45	17	7	4	34	-1	13	-1	38	-1	1	29	-1	18	-1	-1	36	-1	49	47	-1	46	-1	42	10	3	-1	-1	-1	-1	32	23	43	31	12	48	33	-1	-1
-1	-1	29	7	-1	-1	38	-1	25	-1	-1	-1	16	-1	17	-1	-1	22	-1	-1	9	48	4	-1	33	49	-1	40	43	-1	30	-1	36	-1	-1	-1	35	41	-1	-1	-1	-1	-1	-1	-1	-1	14	-1	34
49 
27 7 38 30
24 11 6 41
9 44 7 39
18 20 10 17
35 25 8 38
20 7 36 14
38 2 32 49
49 30 41 24
43 37 15 23
13 24 8 6
1 4 23 13
41 4 20 1
47 48 24 26
19 43 41 19
23 22 30 6
2 49 19 30
4 16 27 19
44 37 23 40
43 6 18 3
44 28 49 45
28 12 42 17
18 30 38 28
26 15 30 16
11 30 44 1
29 30 18 41
1 40 23 3
38 25 21 16
5 28 31 24
6 35 14 7
39 7 34 22
36 16 29 35
24 13 33 21
31 41 38 10
10 28 20 41
10 26 43 21
16 39 27 23
9 45 26 5
26 31 31 11
49 1 9 24
26 23 22 41
14 27 24 47
18 35 37 12
5 45 27 21
2 33 10 11
32 17 40 1
17 28 39 10
23 29 45 14
23 17 19 29
30 1 32 47
